=obj=                -132.873136947
x1                   1
x2                   0
x3                   0
x4                   0
x5                   0
x6                   1
x7                   0
x8                   0
x9                   1
x10                  1
x11                  0
x12                  1
x13                  0
x14                  1
x15                  0
x16                  0
x17                  1
x18                  1
x19                  0
x20                  1
x21                  1
x22                  0
x23                  0
x24                  0
x25                  1
x26                  0
x27                  0
x28                  0
x29                  1
x30                  0
x31                  0
x32                  0
x33                  1
x34                  1
x35                  0
x36                  1
x37                  0
x38                  1
x39                  0
x40                  0
x41                  1
x42                  0
x43                  0
x44                  0
x45                  0
x46                  0
x47                  0
x48                  1
x49                  0
x50                  0
x51                  0
x52                  0
x53                  2.73
x54                  0
x55                  0
x56                  0
x57                  0
x58                  3.77
x59                  0
x60                  0
x61                  0
x62                  0
x63                  0
x64                  0
x65                  0
x66                  0.52
x67                  0
x68                  0
x69                  0
x70                  4.16
x71                  0
x72                  0
x73                  0.52
x74                  0
x75                  0
x76                  0
x77                  0
x78                  2.34
x79                  0
x80                  0
x81                  0
x82                  0.980000999999962
x83                  0
x84                  21.249999
x85                  0
x86                  3.64
x87                  0
x88                  0
x89                  0.26
x90                  0
x91                  0
x92                  0
x93                  0
x94                  0
x95                  0
x96                  0
x97                  2.73
x98                  0
x99                  0
x100                 0
x101                 0
x102                 0
x103                 0
x104                 0
x105                 0.52
x106                 0
x107                 0
x108                 0
x109                 0.26
x110                 0
x111                 0
x112                 0
x113                 0
x114                 0
x115                 0
x116                 0
x117                 3.38
x118                 0
x119                 0
x120                 0
x121                 0
x122                 0
x123                 0
x124                 0
x125                 1.82
x126                 0
x127                 0
x128                 0
x129                 0.26
x130                 0
x131                 0
x132                 0
x133                 0.26
x134                 0
x135                 0
x136                 0
x137                 0
x138                 0
x139                 0
x140                 0
x141                 3.38
x142                 0
x143                 0
x144                 0
x145                 0
x146                 0
x147                 0
x148                 0
x149                 1.82
x150                 0
x151                 0
x152                 0
x153                 0.26
x154                 0
x155                 0
x156                 0
x157                 0.26
x158                 0
x159                 0
x160                 0
x161                 2.73
x162                 0
x163                 0
x164                 0
x165                 0
x166                 3.51
x167                 0
x168                 0
x169                 0.26
x170                 0
x171                 0
x172                 0
x173                 0
x174                 3.9
x175                 0
x176                 0
x177                 1.98000000000002
x178                 0
x179                 0
x180                 17.390001
x181                 2.73
x182                 0
x183                 0
x184                 0
x185                 3.38
x186                 0
x187                 0
x188                 0
x189                 3.38
x190                 0
x191                 0
x192                 0
x193                 0
x194                 0
x195                 0
x196                 0
x197                 0
x198                 0.52
x199                 0
x200                 0
x201                 0
x202                 4.94
x203                 0
x204                 0
x205                 0
x206                 1.04
x207                 0
x208                 0
x209                 0
x210                 7.28
x211                 0
x212                 0
x213                 0
x214                 0
x215                 0
x216                 0
x217                 0
x218                 0
x219                 0
x220                 0
x221                 0
x222                 0
x223                 0
x224                 0
x225                 0
x226                 4.42
x227                 0
x228                 0
x229                 0.26
x230                 0
x231                 0
x232                 0
x233                 0
x234                 0
x235                 0
x236                 0
x237                 3.51
x238                 0
x239                 0
x240                 0
x241                 0
x242                 0
x243                 0
x244                 0
x245                 1.3
x246                 0
x247                 0
x248                 0
x249                 0.26
x250                 0
x251                 0
x252                 0
x253                 0.26
x254                 0
x255                 0
x256                 0
x257                 0.26
x258                 0
x259                 0
x260                 0
x261                 3.51
x262                 0
x263                 0
x264                 0
x265                 0
x266                 0
x267                 0
x268                 0
x269                 0
x270                 0
x271                 0
x272                 0
x273                 0
x274                 0
x275                 0
x276                 0
x277                 0
x278                 0
x279                 0
x280                 3.12
x281                 0
x282                 0
x283                 0
x284                 0
x285                 0
x286                 0
x287                 0
x288                 0.78
x289                 0
x290                 0
x291                 0
x292                 0
x293                 0
x294                 0
x295                 0
x296                 0
x297                 0
x298                 0
x299                 0
x300                 0
x301                 0
x302                 0
x303                 0
x304                 3.12
x305                 0
x306                 0
x307                 0
x308                 0
x309                 0
x310                 0
x311                 0
x312                 0
x313                 0.26
x314                 0
x315                 0
x316                 0
x317                 2.73
x318                 0
x319                 0
x320                 0
x321                 0
x322                 3.77
x323                 0
x324                 0
x325                 0.26
x326                 0
x327                 0
x328                 0
x329                 0
x330                 0.52
x331                 0
x332                 0
x333                 0
x334                 4.16
x335                 0
x336                 0
x337                 0.52
x338                 0
x339                 0
x340                 0
x341                 0
x342                 2.34
x343                 0
x344                 0
x345                 0
x346                 0.980000999999962
x347                 0
x348                 21.249999
x349                 0
x350                 3.64
x351                 0
x352                 0
x353                 0.26
x354                 0
x355                 0
x356                 0
x357                 0
x358                 0.26
x359                 0
x360                 0
x361                 2.73
x362                 0
x363                 0
x364                 0
x365                 0
x366                 0.26
x367                 0
x368                 0
x369                 0.52
x370                 0
x371                 0
x372                 0
x373                 0.26
x374                 0
x375                 0
x376                 0
x377                 0
x378                 0.26
x379                 0
x380                 0
x381                 3.38
x382                 0
x383                 0
x384                 0
x385                 0
x386                 0.26
x387                 0
x388                 0
x389                 1.82
x390                 0
x391                 0
x392                 0
x393                 0.26
x394                 0
x395                 0
x396                 0
x397                 0.26
x398                 0
x399                 0
x400                 0
x401                 0
x402                 0.26
x403                 0
x404                 0
x405                 3.38
x406                 0
x407                 0
x408                 0
x409                 0
x410                 0.26
x411                 0
x412                 0
x413                 1.82
x414                 0
x415                 0
x416                 0
x417                 0.26
x418                 0
x419                 0
x420                 0
x421                 0.26
x422                 0
x423                 0
x424                 0
x425                 2.73
x426                 0
x427                 0
x428                 0
x429                 0
x430                 3.51
x431                 0
x432                 0
x433                 0.26
x434                 0
x435                 0
x436                 0
x437                 0
x438                 3.9
x439                 0
x440                 0
x441                 1.98000000000002
x442                 0
x443                 0
x444                 17.390001
x445                 2.73
x446                 0
x447                 0
x448                 0
x449                 3.38
x450                 0
x451                 0
x452                 0
x453                 3.38
x454                 0
x455                 0
x456                 0
x457                 0.26
x458                 0
x459                 0
x460                 0
x461                 0
x462                 0.52
x463                 0
x464                 0
x465                 0
x466                 4.94
x467                 0
x468                 0
x469                 0
x470                 1.04
x471                 0
x472                 0
x473                 0
x474                 7.28
x475                 0
x476                 0
x477                 0.26
x478                 0
x479                 0
x480                 0
x481                 0.26
x482                 0
x483                 0
x484                 0
x485                 0.52
x486                 0
x487                 0
x488                 0
x489                 0
x490                 4.42
x491                 0
x492                 0
x493                 0.26
x494                 0
x495                 0
x496                 0
x497                 0
x498                 0.26
x499                 0
x500                 0
x501                 3.51
x502                 0
x503                 0
x504                 0
x505                 0
x506                 0.26
x507                 0
x508                 0
x509                 1.3
x510                 0
x511                 0
x512                 0
x513                 0.26
x514                 0
x515                 0
x516                 0
x517                 0.26
x518                 0
x519                 0
x520                 0
x521                 0.26
x522                 0
x523                 0
x524                 0
x525                 3.51
x526                 0
x527                 0
x528                 0
x529                 0
x530                 0.52
x531                 0
x532                 0
x533                 0.26
x534                 0
x535                 0
x536                 0
x537                 0
x538                 0.26
x539                 0
x540                 0
x541                 0
x542                 0
x543                 0
x544                 3.12
x545                 0
x546                 0.26
x547                 0
x548                 0
x549                 0
x550                 0
x551                 0
x552                 0.78
x553                 0.26
x554                 0
x555                 0
x556                 0
x557                 0.26
x558                 0
x559                 0
x560                 0
x561                 0.26
x562                 0
x563                 0
x564                 0
x565                 0
x566                 0
x567                 0
x568                 3.12
x569                 0
x570                 0.52
x571                 0
x572                 0
x573                 0.26
x574                 0
x575                 0
x576                 0
x577                 0
x578                 0.26
x579                 0
x580                 0
x581                 2.73
x582                 0
x583                 0
x584                 0
x585                 0
x586                 3.77
x587                 0
x588                 0
x589                 0
x590                 0.26
x591                 0
x592                 0
x593                 0
x594                 0.52
x595                 0
x596                 0
x597                 0
x598                 4.16
x599                 0
x600                 0
x601                 0.52
x602                 0
x603                 0
x604                 0
x605                 0
x606                 2.34
x607                 0
x608                 0
x609                 0
x610                 0.980000999999962
x611                 0
x612                 21.249999
x613                 0
x614                 3.64
x615                 0
x616                 0
x617                 0.26
x618                 0
x619                 0
x620                 0
x621                 0.26
x622                 0
x623                 0
x624                 0
x625                 2.73
x626                 0
x627                 0
x628                 0
x629                 0.26
x630                 0
x631                 0
x632                 0
x633                 0.52
x634                 0
x635                 0
x636                 0
x637                 0.26
x638                 0
x639                 0
x640                 0
x641                 0.26
x642                 0
x643                 0
x644                 0
x645                 3.38
x646                 0
x647                 0
x648                 0
x649                 0.26
x650                 0
x651                 0
x652                 0
x653                 1.82
x654                 0
x655                 0
x656                 0
x657                 0.26
x658                 0
x659                 0
x660                 0
x661                 0.26
x662                 0
x663                 0
x664                 0
x665                 0.26
x666                 0
x667                 0
x668                 0
x669                 3.38
x670                 0
x671                 0
x672                 0
x673                 0.26
x674                 0
x675                 0
x676                 0
x677                 1.82
x678                 0
x679                 0
x680                 0
x681                 0.26
x682                 0
x683                 0
x684                 0
x685                 0.26
x686                 0
x687                 0
x688                 0
x689                 2.73
x690                 0
x691                 0
x692                 0
x693                 0
x694                 3.51
x695                 0
x696                 0
x697                 0.26
x698                 0
x699                 0
x700                 0
x701                 0
x702                 3.9
x703                 0
x704                 0
x705                 1.98000000000002
x706                 0
x707                 0
x708                 17.390001
x709                 2.73
x710                 0
x711                 0
x712                 0
x713                 3.38
x714                 0
x715                 0
x716                 0
x717                 3.38
x718                 0
x719                 0
x720                 0
x721                 0
x722                 0.26
x723                 0
x724                 0
x725                 0
x726                 0.52
x727                 0
x728                 0
x729                 0
x730                 4.94
x731                 0
x732                 0
x733                 0
x734                 1.04
x735                 0
x736                 0
x737                 0
x738                 7.28
x739                 0
x740                 0
x741                 0
x742                 0.26
x743                 0
x744                 0
x745                 0
x746                 0.26
x747                 0
x748                 0
x749                 0
x750                 0.52
x751                 0
x752                 0
x753                 0
x754                 4.42
x755                 0
x756                 0
x757                 0.26
x758                 0
x759                 0
x760                 0
x761                 0.26
x762                 0
x763                 0
x764                 0
x765                 3.51
x766                 0
x767                 0
x768                 0
x769                 0.26
x770                 0
x771                 0
x772                 0
x773                 1.3
x774                 0
x775                 0
x776                 0
x777                 0.26
x778                 0
x779                 0
x780                 0
x781                 0.26
x782                 0
x783                 0
x784                 0
x785                 0.26
x786                 0
x787                 0
x788                 0
x789                 3.51
x790                 0
x791                 0
x792                 0
x793                 0.52
x794                 0
x795                 0
x796                 0
x797                 0
x798                 0
x799                 0
x800                 0.26
x801                 0
x802                 0
x803                 0
x804                 0.26
x805                 0
x806                 0
x807                 0
x808                 3.12
x809                 0
x810                 0
x811                 0
x812                 0.26
x813                 0
x814                 0
x815                 0
x816                 0.78
x817                 0
x818                 0
x819                 0
x820                 0.26
x821                 0
x822                 0
x823                 0
x824                 0.26
x825                 0
x826                 0
x827                 0
x828                 0.26
x829                 0
x830                 0
x831                 0
x832                 3.12
x833                 0
x834                 0
x835                 0
x836                 0.52
x837                 0
x838                 0
x839                 0
x840                 0.26
